Minimize
  - 85 y_0 - 99 y_1 - 71 y_2 - 50 y_3 - 81 y_4 - 62 y_5 - 96 y_7 - 42 y_8
   - 23 y_9 - 80 y_10 - 68 y_11 - 79 y_12 - 112 y_13 - 48 y_14 - 79 y_15
   - 92 y_16 - 50 y_17 - 102 y_18 - 108 y_19 - 103 y_20 - 92 y_21 - 92 y_22
   - 88 y_23 - 84 y_24 - 99 y_25 - 47 y_26 - 82 y_27 - 95 y_28 - 28 y_29
   - 135 y_30 - 123 y_31 - 52 y_32 - 88 y_33 - 35 y_34 - 36 y_35 - 106 y_36
   - 93 y_37 - 75 y_38 - 54 y_39 - 88 y_40 - 112 y_41 - 75 y_42 - 99 y_43
   - 101 y_44 - 119 y_45 - 121 y_46 - 76 y_47 - 32 y_48 - 105 y_49
   + 95 x_0_2 + 35 x_0_3 + 62 x_0_4 + 85 x_0_6 + 79 x_0_9 + 80 x_0_19
   + 45 x_0_25 + 75 x_0_28 + 6 x_0_33 + 79 x_0_43 + 75 x_0_48 + 48 x_1_4
   + 62 x_1_8 + 87 x_1_9 + 55 x_1_13 + 44 x_1_15 + 14 x_1_16 + 29 x_1_21
   + 67 x_1_23 + 56 x_1_28 + 59 x_1_30 + 58 x_1_31 + 52 x_1_32 + 32 x_1_33
   + 46 x_1_39 + 27 x_1_40 + 45 x_1_45 + 32 x_1_47 + 81 x_1_48 + 21 x_2_10
   + 3 x_2_11 + 91 x_2_16 + 55 x_2_17 + 95 x_2_18 + 44 x_2_20 + 63 x_2_21
   + 24 x_2_22 + 30 x_2_23 + 54 x_2_24 + 43 x_2_29 + 88 x_2_30 + 74 x_2_31
   + 101 x_2_33 + 48 x_2_35 + 12 x_2_38 + 46 x_2_43 + 50 x_3_6 + 38 x_3_12
   + 20 x_3_14 + 85 x_3_19 + 87 x_3_22 + 76 x_3_23 + 37 x_3_26 + 103 x_3_30
   + 95 x_3_31 + 38 x_3_33 + 31 x_3_35 + 73 x_3_38 + 38 x_3_40 + 79 x_3_43
   + 87 x_3_45 + 46 x_3_48 + 81 x_4_6 + 76 x_4_7 + 42 x_4_11 + 31 x_4_13
   + 54 x_4_16 + 56 x_4_18 + 29 x_4_20 + 21 x_4_21 + 34 x_4_27 + 61 x_4_29
   + 55 x_4_30 + 45 x_4_35 + 30 x_4_38 + 46 x_4_39 + 21 x_4_43 + 58 x_4_47
   + 82 x_5_13 + 28 x_5_17 + 82 x_5_19 + 11 x_5_32 + 78 x_5_43 + 80 x_5_45
   + 81 x_5_46 + 56 x_5_48 + 23 x_6_9 + 68 x_6_11 + 79 x_6_12 + 112 x_6_13
   + 79 x_6_15 + 102 x_6_18 + 103 x_6_20 + 88 x_6_23 + 123 x_6_31
   + 75 x_6_42 + 99 x_6_43 + 101 x_6_44 + 121 x_6_46 + 76 x_6_47
   + 59 x_7_17 + 65 x_7_24 + 88 x_7_28 + 94 x_7_31 + 73 x_7_35 + 25 x_7_37
   + 102 x_7_38 + 79 x_7_41 + 92 x_7_43 + 82 x_7_45 + 57 x_8_15 + 24 x_8_17
   + 67 x_8_25 + 49 x_8_29 + 29 x_8_34 + 27 x_8_35 + 53 x_8_37 + 82 x_8_43
   + 84 x_8_49 + 45 x_9_11 + 36 x_9_14 + 36 x_9_17 + 91 x_9_18 + 65 x_9_24
   + 82 x_9_25 + 48 x_9_32 + 88 x_9_36 + 83 x_9_37 + 51 x_9_38 + 93 x_9_41
   + 100 x_9_45 + 22 x_10_11 + 54 x_10_12 + 27 x_10_15 + 76 x_10_16
   + 49 x_10_17 + 79 x_10_18 + 44 x_10_21 + 10 x_10_23 + 38 x_10_26
   + 55 x_10_29 + 72 x_10_32 + 88 x_10_33 + 53 x_10_36 + 61 x_10_39
   + 58 x_10_46 + 35 x_10_49 + 69 x_11_12 + 53 x_11_17 + 95 x_11_18
   + 38 x_11_26 + 71 x_11_27 + 61 x_11_44 + 79 x_11_45 + 80 x_11_46
   + 38 x_11_48 + 30 x_12_17 + 52 x_12_19 + 3 x_12_27 + 46 x_12_28
   + 71 x_12_29 + 59 x_12_31 + 35 x_12_33 + 48 x_12_34 + 31 x_12_40
   + 43 x_12_41 + 27 x_12_47 + 60 x_12_48 + 91 x_13_29 + 27 x_13_30
   + 77 x_13_34 + 14 x_13_41 + 16 x_13_43 + 46 x_14_16 + 18 x_14_34
   + 59 x_14_36 + 47 x_14_37 + 74 x_14_45 + 35 x_14_47 + 32 x_14_48
   + 52 x_15_18 + 31 x_15_19 + 33 x_15_20 + 57 x_15_30 + 62 x_15_33
   + 44 x_15_34 + 31 x_15_36 + 34 x_15_41 + 22 x_15_44 + 41 x_15_45
   + 28 x_15_49 + 69 x_16_19 + 89 x_16_22 + 38 x_16_39 + 14 x_16_40
   + 68 x_16_43 + 77 x_16_48 + 65 x_17_19 + 64 x_17_22 + 37 x_17_24
   + 49 x_17_25 + 33 x_17_27 + 18 x_17_34 + 47 x_17_37 + 14 x_17_39
   + 48 x_17_40 + 65 x_17_41 + 58 x_17_43 + 54 x_17_44 + 37 x_17_47
   + 66 x_18_19 + 37 x_18_21 + 66 x_18_31 + 53 x_18_32 + 48 x_18_39
   + 52 x_18_46 + 61 x_19_26 + 13 x_19_28 + 87 x_19_29 + 33 x_19_30
   + 18 x_19_31 + 31 x_19_36 + 68 x_19_37 + 81 x_19_40 + 62 x_19_42
   + 10 x_19_43 + 24 x_19_45 + 5 x_19_49 + 22 x_20_22 + 49 x_20_25
   + 58 x_20_26 + 46 x_20_30 + 70 x_20_34 + 77 x_20_37 + 39 x_20_45
   + 54 x_21_22 + 39 x_21_23 + 28 x_21_28 + 56 x_21_35 + 51 x_21_38
   + 46 x_21_39 + 48 x_21_47 + 64 x_22_25 + 52 x_22_26 + 69 x_22_27
   + 68 x_22_30 + 63 x_22_35 + 76 x_22_39 + 99 x_22_40 + 54 x_22_41
   + 27 x_22_42 + 28 x_22_43 + 46 x_22_44 + 39 x_22_49 + 49 x_23_25
   + 55 x_23_27 + 14 x_23_28 + 64 x_23_29 + 43 x_23_31 + 64 x_23_39
   + 41 x_23_41 + 15 x_23_43 + 31 x_23_44 + 49 x_23_46 + 26 x_23_49
   + 20 x_24_25 + 68 x_24_29 + 41 x_24_31 + 57 x_24_33 + 48 x_24_35
   + 41 x_24_37 + 42 x_24_39 + 62 x_24_42 + 28 x_24_43 + 35 x_24_45
   + 58 x_24_48 + 86 x_25_29 + 39 x_25_31 + 50 x_25_33 + 31 x_25_37
   + 62 x_25_38 + 23 x_25_41 + 39 x_25_43 + 21 x_25_44 + 27 x_25_45
   + 42 x_26_27 + 59 x_26_37 + 37 x_26_38 + 73 x_26_45 + 58 x_26_49
   + 19 x_27_37 + 43 x_27_41 + 49 x_27_46 + 26 x_27_47 + 62 x_27_48
   + 47 x_27_49 + 73 x_28_29 + 74 x_28_32 + 32 x_28_38 + 27 x_28_41
   + 18 x_28_44 + 56 x_29_32 + 90 x_29_33 + 24 x_29_34 + 91 x_29_36
   + 89 x_29_40 + 83 x_29_44 + 102 x_29_45 + 77 x_29_47 + 11 x_29_48
   + 100 x_30_34 + 92 x_30_39 + 35 x_30_44 + 16 x_30_46 + 89 x_30_47
   + 107 x_30_48 + 94 x_31_32 + 62 x_31_38 + 16 x_31_41 + 14 x_31_46
   + 94 x_31_48 + 36 x_32_33 + 68 x_32_36 + 73 x_32_38 + 11 x_32_39
   + 20 x_33_37 + 65 x_34_37 + 54 x_34_47 + 70 x_35_36 + 63 x_35_37
   + 47 x_35_38 + 27 x_35_39 + 63 x_35_40 + 56 x_35_42 + 64 x_35_43
   + 65 x_35_44 + 16 x_35_48 + 70 x_35_49 + 35 x_36_43 + 16 x_36_44
   + 18 x_36_45 + 56 x_36_47 + 81 x_37_38 + 39 x_37_39 + 15 x_37_40
   + 68 x_37_43 + 57 x_37_45 + 57 x_37_46 + 21 x_37_47 + 37 x_38_26
   + 65 x_38_45 + 81 x_38_47 + 43 x_38_48 + 37 x_39_40 + 76 x_39_46
   + 69 x_40_41 + 107 x_40_42 + 27 x_41_43 + 9 x_41_46 + 69 x_41_47
   + 85 x_41_48 + 52 x_42_43 + 86 x_42_46 + 34 x_43_46 + 21 x_44_46
   + 63 x_44_47 + 73 x_44_48 + 21 x_45_49 + 3962 Constant
Subject To
 c_0: y_9 = 1
 c_1_0: y_0 + y_7 + y_16 + y_33 + y_37 + y_40 + y_47 >= 1
 c_1_1: y_1 + y_16 + y_18 + y_27 + y_37 >= 1
 c_1_2: y_2 + y_11 + y_38 + y_42 >= 1
 c_1_3: y_3 + y_5 + y_8 + y_14 + y_32 + y_39 >= 1
 c_1_4: y_4 + y_15 + y_24 + y_28 >= 1
 c_1_5: y_3 + y_5 + y_32 + y_39 + y_47 >= 1
 c_1_6: y_6 >= 1
 c_1_7: y_0 + y_7 + y_33 + y_40 >= 1
 c_1_8: y_3 + y_8 + y_32 + y_39 >= 1
 c_1_9: y_9 + y_29 + y_34 + y_35 + y_48 >= 1
 c_1_10: y_10 + y_22 + y_23 + y_38 >= 1
 c_1_11: y_2 + y_11 + y_38 + y_42 >= 1
 c_1_12: y_12 + y_27 >= 1
 c_1_13: y_13 + y_19 + y_28 + y_31 + y_41 + y_43 + y_44 + y_45 + y_46
   + y_49 >= 1
 c_1_14: y_3 + y_14 + y_17 + y_26 + y_32 + y_34 + y_35 + y_39 >= 1
 c_1_15: y_4 + y_15 + y_21 + y_24 >= 1
 c_1_16: y_0 + y_1 + y_16 + y_18 + y_27 + y_33 + y_37 + y_40 + y_47 >= 1
 c_1_17: y_14 + y_17 + y_26 + y_34 + y_35 + y_39 >= 1
 c_1_18: y_1 + y_16 + y_18 + y_37 >= 1
 c_1_19: y_13 + y_19 + y_20 + y_28 + y_31 + y_41 + y_43 + y_44 + y_49 >= 1
 c_1_20: y_19 + y_20 + y_23 + y_28 + y_43 + y_49 >= 1
 c_1_21: y_15 + y_21 + y_24 + y_25 + y_36 + y_44 >= 1
 c_1_22: y_10 + y_22 + y_23 + y_38 >= 1
 c_1_23: y_10 + y_20 + y_22 + y_23 + y_28 + y_38 + y_43 >= 1
 c_1_24: y_4 + y_15 + y_21 + y_24 + y_25 + y_44 >= 1
 c_1_25: y_21 + y_24 + y_25 + y_36 >= 1
 c_1_26: y_14 + y_17 + y_26 + y_34 + y_35 + y_48 >= 1
 c_1_27: y_1 + y_12 + y_16 + y_27 + y_37 >= 1
 c_1_28: y_4 + y_13 + y_19 + y_20 + y_23 + y_28 + y_43 + y_44 + y_49 >= 1
 c_1_29: y_9 + y_29 + y_48 >= 1
 c_1_30: y_30 + y_31 + y_45 + y_46 >= 1
 c_1_31: y_13 + y_19 + y_30 + y_31 + y_41 + y_45 + y_46 + y_49 >= 1
 c_1_32: y_3 + y_5 + y_8 + y_14 + y_32 + y_39 >= 1
 c_1_33: y_0 + y_7 + y_16 + y_33 + y_37 + y_40 + y_47 >= 1
 c_1_34: y_9 + y_14 + y_17 + y_26 + y_34 + y_35 + y_48 >= 1
 c_1_35: y_9 + y_14 + y_17 + y_26 + y_34 + y_35 + y_48 >= 1
 c_1_36: y_21 + y_25 + y_36 + y_41 + y_44 + y_45 + y_46 >= 1
 c_1_37: y_0 + y_1 + y_16 + y_18 + y_27 + y_33 + y_37 + y_40 >= 1
 c_1_38: y_2 + y_10 + y_11 + y_22 + y_23 + y_38 + y_42 >= 1
 c_1_39: y_3 + y_5 + y_8 + y_14 + y_17 + y_32 + y_39 >= 1
 c_1_40: y_0 + y_7 + y_16 + y_33 + y_37 + y_40 + y_47 >= 1
 c_1_41: y_13 + y_19 + y_31 + y_36 + y_41 + y_44 + y_45 + y_46 + y_49 >= 1
 c_1_42: y_2 + y_11 + y_38 + y_42 >= 1
 c_1_43: y_13 + y_19 + y_20 + y_23 + y_28 + y_43 + y_44 + y_49 >= 1
 c_1_44: y_13 + y_19 + y_21 + y_24 + y_28 + y_36 + y_41 + y_43 + y_44
   + y_45 + y_49 >= 1
 c_1_45: y_13 + y_30 + y_31 + y_36 + y_41 + y_44 + y_45 + y_46 >= 1
 c_1_46: y_13 + y_30 + y_31 + y_36 + y_41 + y_45 + y_46 >= 1
 c_1_47: y_0 + y_5 + y_16 + y_33 + y_40 + y_47 >= 1
 c_1_48: y_9 + y_26 + y_29 + y_34 + y_35 + y_48 >= 1
 c_1_49: y_13 + y_19 + y_20 + y_28 + y_31 + y_41 + y_43 + y_44 + y_49 >= 1
 c_2_0: - 2 y_0 + x_0_2 + x_0_3 + x_0_4 + x_0_6 + x_0_9 + x_0_19 + x_0_25
   + x_0_28 + x_0_33 + x_0_43 + x_0_48 = 0
 c_2_1: - 2 y_1 + x_1_4 + x_1_8 + x_1_9 + x_1_13 + x_1_15 + x_1_16 + x_1_21
   + x_1_23 + x_1_28 + x_1_30 + x_1_31 + x_1_32 + x_1_33 + x_1_39 + x_1_40
   + x_1_45 + x_1_47 + x_1_48 = 0
 c_2_2: - 2 y_2 + x_0_2 + x_2_10 + x_2_11 + x_2_16 + x_2_17 + x_2_18
   + x_2_20 + x_2_21 + x_2_22 + x_2_23 + x_2_24 + x_2_29 + x_2_30 + x_2_31
   + x_2_33 + x_2_35 + x_2_38 + x_2_43 = 0
 c_2_3: - 2 y_3 + x_0_3 + x_3_6 + x_3_12 + x_3_14 + x_3_19 + x_3_22
   + x_3_23 + x_3_26 + x_3_30 + x_3_31 + x_3_33 + x_3_35 + x_3_38 + x_3_40
   + x_3_43 + x_3_45 + x_3_48 = 0
 c_2_4: - 2 y_4 + x_0_4 + x_1_4 + x_4_6 + x_4_7 + x_4_11 + x_4_13 + x_4_16
   + x_4_18 + x_4_20 + x_4_21 + x_4_27 + x_4_29 + x_4_30 + x_4_35 + x_4_38
   + x_4_39 + x_4_43 + x_4_47 = 0
 c_2_5: - 2 y_5 + x_5_13 + x_5_17 + x_5_19 + x_5_32 + x_5_43 + x_5_45
   + x_5_46 + x_5_48 = 0
 c_2_6: - 2 y_6 + x_0_6 + x_3_6 + x_4_6 + x_6_9 + x_6_11 + x_6_12 + x_6_13
   + x_6_15 + x_6_18 + x_6_20 + x_6_23 + x_6_31 + x_6_42 + x_6_43 + x_6_44
   + x_6_46 + x_6_47 = 0
 c_2_7: - 2 y_7 + x_4_7 + x_7_17 + x_7_24 + x_7_28 + x_7_31 + x_7_35
   + x_7_37 + x_7_38 + x_7_41 + x_7_43 + x_7_45 = 0
 c_2_8: - 2 y_8 + x_1_8 + x_8_15 + x_8_17 + x_8_25 + x_8_29 + x_8_34
   + x_8_35 + x_8_37 + x_8_43 + x_8_49 = 0
 c_2_9: - 2 y_9 + x_0_9 + x_1_9 + x_6_9 + x_9_11 + x_9_14 + x_9_17 + x_9_18
   + x_9_24 + x_9_25 + x_9_32 + x_9_36 + x_9_37 + x_9_38 + x_9_41 + x_9_45
   = 0
 c_2_10: - 2 y_10 + x_2_10 + x_10_11 + x_10_12 + x_10_15 + x_10_16
   + x_10_17 + x_10_18 + x_10_21 + x_10_23 + x_10_26 + x_10_29 + x_10_32
   + x_10_33 + x_10_36 + x_10_39 + x_10_46 + x_10_49 = 0
 c_2_11: - 2 y_11 + x_2_11 + x_4_11 + x_6_11 + x_9_11 + x_10_11 + x_11_12
   + x_11_17 + x_11_18 + x_11_26 + x_11_27 + x_11_44 + x_11_45 + x_11_46
   + x_11_48 = 0
 c_2_12: - 2 y_12 + x_3_12 + x_6_12 + x_10_12 + x_11_12 + x_12_17 + x_12_19
   + x_12_27 + x_12_28 + x_12_29 + x_12_31 + x_12_33 + x_12_34 + x_12_40
   + x_12_41 + x_12_47 + x_12_48 = 0
 c_2_13: - 2 y_13 + x_1_13 + x_4_13 + x_5_13 + x_6_13 + x_13_29 + x_13_30
   + x_13_34 + x_13_41 + x_13_43 = 0
 c_2_14: - 2 y_14 + x_3_14 + x_9_14 + x_14_16 + x_14_34 + x_14_36 + x_14_37
   + x_14_45 + x_14_47 + x_14_48 = 0
 c_2_15: - 2 y_15 + x_1_15 + x_6_15 + x_8_15 + x_10_15 + x_15_18 + x_15_19
   + x_15_20 + x_15_30 + x_15_33 + x_15_34 + x_15_36 + x_15_41 + x_15_44
   + x_15_45 + x_15_49 = 0
 c_2_16: - 2 y_16 + x_1_16 + x_2_16 + x_4_16 + x_10_16 + x_14_16 + x_16_19
   + x_16_22 + x_16_39 + x_16_40 + x_16_43 + x_16_48 = 0
 c_2_17: - 2 y_17 + x_2_17 + x_5_17 + x_7_17 + x_8_17 + x_9_17 + x_10_17
   + x_11_17 + x_12_17 + x_17_19 + x_17_22 + x_17_24 + x_17_25 + x_17_27
   + x_17_34 + x_17_37 + x_17_39 + x_17_40 + x_17_41 + x_17_43 + x_17_44
   + x_17_47 = 0
 c_2_18: - 2 y_18 + x_2_18 + x_4_18 + x_6_18 + x_9_18 + x_10_18 + x_11_18
   + x_15_18 + x_18_19 + x_18_21 + x_18_31 + x_18_32 + x_18_39 + x_18_46
   = 0
 c_2_19: - 2 y_19 + x_0_19 + x_3_19 + x_5_19 + x_12_19 + x_15_19 + x_16_19
   + x_17_19 + x_18_19 + x_19_26 + x_19_28 + x_19_29 + x_19_30 + x_19_31
   + x_19_36 + x_19_37 + x_19_40 + x_19_42 + x_19_43 + x_19_45 + x_19_49
   = 0
 c_2_20: - 2 y_20 + x_2_20 + x_4_20 + x_6_20 + x_15_20 + x_20_22 + x_20_25
   + x_20_26 + x_20_30 + x_20_34 + x_20_37 + x_20_45 = 0
 c_2_21: - 2 y_21 + x_1_21 + x_2_21 + x_4_21 + x_10_21 + x_18_21 + x_21_22
   + x_21_23 + x_21_28 + x_21_35 + x_21_38 + x_21_39 + x_21_47 = 0
 c_2_22: - 2 y_22 + x_2_22 + x_3_22 + x_16_22 + x_17_22 + x_20_22 + x_21_22
   + x_22_25 + x_22_26 + x_22_27 + x_22_30 + x_22_35 + x_22_39 + x_22_40
   + x_22_41 + x_22_42 + x_22_43 + x_22_44 + x_22_49 = 0
 c_2_23: - 2 y_23 + x_1_23 + x_2_23 + x_3_23 + x_6_23 + x_10_23 + x_21_23
   + x_23_25 + x_23_27 + x_23_28 + x_23_29 + x_23_31 + x_23_39 + x_23_41
   + x_23_43 + x_23_44 + x_23_46 + x_23_49 = 0
 c_2_24: - 2 y_24 + x_2_24 + x_7_24 + x_9_24 + x_17_24 + x_24_25 + x_24_29
   + x_24_31 + x_24_33 + x_24_35 + x_24_37 + x_24_39 + x_24_42 + x_24_43
   + x_24_45 + x_24_48 = 0
 c_2_25: - 2 y_25 + x_0_25 + x_8_25 + x_9_25 + x_17_25 + x_20_25 + x_22_25
   + x_23_25 + x_24_25 + x_25_29 + x_25_31 + x_25_33 + x_25_37 + x_25_38
   + x_25_41 + x_25_43 + x_25_44 + x_25_45 = 0
 c_2_26: - 2 y_26 + x_3_26 + x_10_26 + x_11_26 + x_19_26 + x_20_26
   + x_22_26 + x_26_27 + x_26_37 + x_26_45 + x_26_49 + 2 x_38_26 = 0
 c_2_27: - 2 y_27 + x_4_27 + x_11_27 + x_12_27 + x_17_27 + x_22_27
   + x_23_27 + x_26_27 + x_27_37 + x_27_41 + x_27_46 + x_27_47 + x_27_48
   + x_27_49 = 0
 c_2_28: - 2 y_28 + x_0_28 + x_1_28 + x_7_28 + x_12_28 + x_19_28 + x_21_28
   + x_23_28 + x_28_29 + x_28_32 + x_28_38 + x_28_41 + x_28_44 = 0
 c_2_29: - 2 y_29 + x_2_29 + x_4_29 + x_8_29 + x_10_29 + x_12_29 + x_13_29
   + x_19_29 + x_23_29 + x_24_29 + x_25_29 + x_28_29 + x_29_32 + x_29_33
   + x_29_34 + x_29_36 + x_29_40 + x_29_44 + x_29_45 + x_29_47 + x_29_48
   = 0
 c_2_30: - 2 y_30 + x_1_30 + x_2_30 + x_3_30 + x_4_30 + x_13_30 + x_15_30
   + x_19_30 + x_20_30 + x_22_30 + x_30_34 + x_30_39 + x_30_44 + x_30_46
   + x_30_47 + x_30_48 = 0
 c_2_31: - 2 y_31 + x_1_31 + x_2_31 + x_3_31 + x_6_31 + x_7_31 + x_12_31
   + x_18_31 + x_19_31 + x_23_31 + x_24_31 + x_25_31 + x_31_32 + x_31_38
   + x_31_41 + x_31_46 + x_31_48 = 0
 c_2_32: - 2 y_32 + x_1_32 + x_5_32 + x_9_32 + x_10_32 + x_18_32 + x_28_32
   + x_29_32 + x_31_32 + x_32_33 + x_32_36 + x_32_38 + x_32_39 = 0
 c_2_33: - 2 y_33 + x_0_33 + x_1_33 + x_2_33 + x_3_33 + x_10_33 + x_12_33
   + x_15_33 + x_24_33 + x_25_33 + x_29_33 + x_32_33 + x_33_37 = 0
 c_2_34: - 2 y_34 + x_8_34 + x_12_34 + x_13_34 + x_14_34 + x_15_34
   + x_17_34 + x_20_34 + x_29_34 + x_30_34 + x_34_37 + x_34_47 = 0
 c_2_35: - 2 y_35 + x_2_35 + x_3_35 + x_4_35 + x_7_35 + x_8_35 + x_21_35
   + x_22_35 + x_24_35 + x_35_36 + x_35_37 + x_35_38 + x_35_39 + x_35_40
   + x_35_42 + x_35_43 + x_35_44 + x_35_48 + x_35_49 = 0
 c_2_36: - 2 y_36 + x_9_36 + x_10_36 + x_14_36 + x_15_36 + x_19_36
   + x_29_36 + x_32_36 + x_35_36 + x_36_43 + x_36_44 + x_36_45 + x_36_47
   = 0
 c_2_37: - 2 y_37 + x_7_37 + x_8_37 + x_9_37 + x_14_37 + x_17_37 + x_19_37
   + x_20_37 + x_24_37 + x_25_37 + x_26_37 + x_27_37 + x_33_37 + x_34_37
   + x_35_37 + x_37_38 + x_37_39 + x_37_40 + x_37_43 + x_37_45 + x_37_46
   + x_37_47 = 0
 c_2_38: - 2 y_38 + x_2_38 + x_3_38 + x_4_38 + x_7_38 + x_9_38 + x_21_38
   + x_25_38 + x_28_38 + x_31_38 + x_32_38 + x_35_38 + x_37_38 + 2 x_38_26
   + x_38_45 + x_38_47 + x_38_48 = 0
 c_2_39: - 2 y_39 + x_1_39 + x_4_39 + x_10_39 + x_16_39 + x_17_39 + x_18_39
   + x_21_39 + x_22_39 + x_23_39 + x_24_39 + x_30_39 + x_32_39 + x_35_39
   + x_37_39 + x_39_40 + x_39_46 = 0
 c_2_40: - 2 y_40 + x_1_40 + x_3_40 + x_12_40 + x_16_40 + x_17_40 + x_19_40
   + x_22_40 + x_29_40 + x_35_40 + x_37_40 + x_39_40 + x_40_41 + x_40_42
   = 0
 c_2_41: - 2 y_41 + x_7_41 + x_9_41 + x_12_41 + x_13_41 + x_15_41 + x_17_41
   + x_22_41 + x_23_41 + x_25_41 + x_27_41 + x_28_41 + x_31_41 + x_40_41
   + x_41_43 + x_41_46 + x_41_47 + x_41_48 = 0
 c_2_42: - 2 y_42 + x_6_42 + x_19_42 + x_22_42 + x_24_42 + x_35_42
   + x_40_42 + x_42_43 + x_42_46 = 0
 c_2_43: - 2 y_43 + x_0_43 + x_2_43 + x_3_43 + x_4_43 + x_5_43 + x_6_43
   + x_7_43 + x_8_43 + x_13_43 + x_16_43 + x_17_43 + x_19_43 + x_22_43
   + x_23_43 + x_24_43 + x_25_43 + x_35_43 + x_36_43 + x_37_43 + x_41_43
   + x_42_43 + x_43_46 = 0
 c_2_44: - 2 y_44 + x_6_44 + x_11_44 + x_15_44 + x_17_44 + x_22_44
   + x_23_44 + x_25_44 + x_28_44 + x_29_44 + x_30_44 + x_35_44 + x_36_44
   + x_44_46 + x_44_47 + x_44_48 = 0
 c_2_45: - 2 y_45 + x_1_45 + x_3_45 + x_5_45 + x_7_45 + x_9_45 + x_11_45
   + x_14_45 + x_15_45 + x_19_45 + x_20_45 + x_24_45 + x_25_45 + x_26_45
   + x_29_45 + x_36_45 + x_37_45 + x_38_45 + x_45_49 = 0
 c_2_46: - 2 y_46 + x_5_46 + x_6_46 + x_10_46 + x_11_46 + x_18_46 + x_23_46
   + x_27_46 + x_30_46 + x_31_46 + x_37_46 + x_39_46 + x_41_46 + x_42_46
   + x_43_46 + x_44_46 = 0
 c_2_47: - 2 y_47 + x_1_47 + x_4_47 + x_6_47 + x_12_47 + x_14_47 + x_17_47
   + x_21_47 + x_27_47 + x_29_47 + x_30_47 + x_34_47 + x_36_47 + x_37_47
   + x_38_47 + x_41_47 + x_44_47 = 0
 c_2_48: - 2 y_48 + x_0_48 + x_1_48 + x_3_48 + x_5_48 + x_11_48 + x_12_48
   + x_14_48 + x_16_48 + x_24_48 + x_27_48 + x_29_48 + x_30_48 + x_31_48
   + x_35_48 + x_38_48 + x_41_48 + x_44_48 = 0
 c_2_49: - 2 y_49 + x_8_49 + x_10_49 + x_15_49 + x_19_49 + x_22_49
   + x_23_49 + x_26_49 + x_27_49 + x_35_49 + x_45_49 = 0
Bounds
 Constant = 1
Binaries
 y_0 y_1 y_2 y_3 y_4 y_5 y_6 y_7 y_8 y_9 y_10 y_11 y_12 y_13 y_14 y_15 y_16
 y_17 y_18 y_19 y_20 y_21 y_22 y_23 y_24 y_25 y_26 y_27 y_28 y_29 y_30 y_31
 y_32 y_33 y_34 y_35 y_36 y_37 y_38 y_39 y_40 y_41 y_42 y_43 y_44 y_45 y_46
 y_47 y_48 y_49 x_0_2 x_0_3 x_0_4 x_0_6 x_0_9 x_0_19 x_0_25 x_0_28 x_0_33
 x_0_43 x_0_48 x_1_4 x_1_8 x_1_9 x_1_13 x_1_15 x_1_16 x_1_21 x_1_23 x_1_28
 x_1_30 x_1_31 x_1_32 x_1_33 x_1_39 x_1_40 x_1_45 x_1_47 x_1_48 x_2_10
 x_2_11 x_2_16 x_2_17 x_2_18 x_2_20 x_2_21 x_2_22 x_2_23 x_2_24 x_2_29
 x_2_30 x_2_31 x_2_33 x_2_35 x_2_38 x_2_43 x_3_6 x_3_12 x_3_14 x_3_19
 x_3_22 x_3_23 x_3_26 x_3_30 x_3_31 x_3_33 x_3_35 x_3_38 x_3_40 x_3_43
 x_3_45 x_3_48 x_4_6 x_4_7 x_4_11 x_4_13 x_4_16 x_4_18 x_4_20 x_4_21 x_4_27
 x_4_29 x_4_30 x_4_35 x_4_38 x_4_39 x_4_43 x_4_47 x_5_13 x_5_17 x_5_19
 x_5_32 x_5_43 x_5_45 x_5_46 x_5_48 x_6_9 x_6_11 x_6_12 x_6_13 x_6_15
 x_6_18 x_6_20 x_6_23 x_6_31 x_6_42 x_6_43 x_6_44 x_6_46 x_6_47 x_7_17
 x_7_24 x_7_28 x_7_31 x_7_35 x_7_37 x_7_38 x_7_41 x_7_43 x_7_45 x_8_15
 x_8_17 x_8_25 x_8_29 x_8_34 x_8_35 x_8_37 x_8_43 x_8_49 x_9_11 x_9_14
 x_9_17 x_9_18 x_9_24 x_9_25 x_9_32 x_9_36 x_9_37 x_9_38 x_9_41 x_9_45
 x_10_11 x_10_12 x_10_15 x_10_16 x_10_17 x_10_18 x_10_21 x_10_23 x_10_26
 x_10_29 x_10_32 x_10_33 x_10_36 x_10_39 x_10_46 x_10_49 x_11_12 x_11_17
 x_11_18 x_11_26 x_11_27 x_11_44 x_11_45 x_11_46 x_11_48 x_12_17 x_12_19
 x_12_27 x_12_28 x_12_29 x_12_31 x_12_33 x_12_34 x_12_40 x_12_41 x_12_47
 x_12_48 x_13_29 x_13_30 x_13_34 x_13_41 x_13_43 x_14_16 x_14_34 x_14_36
 x_14_37 x_14_45 x_14_47 x_14_48 x_15_18 x_15_19 x_15_20 x_15_30 x_15_33
 x_15_34 x_15_36 x_15_41 x_15_44 x_15_45 x_15_49 x_16_19 x_16_22 x_16_39
 x_16_40 x_16_43 x_16_48 x_17_19 x_17_22 x_17_24 x_17_25 x_17_27 x_17_34
 x_17_37 x_17_39 x_17_40 x_17_41 x_17_43 x_17_44 x_17_47 x_18_19 x_18_21
 x_18_31 x_18_32 x_18_39 x_18_46 x_19_26 x_19_28 x_19_29 x_19_30 x_19_31
 x_19_36 x_19_37 x_19_40 x_19_42 x_19_43 x_19_45 x_19_49 x_20_22 x_20_25
 x_20_26 x_20_30 x_20_34 x_20_37 x_20_45 x_21_22 x_21_23 x_21_28 x_21_35
 x_21_38 x_21_39 x_21_47 x_22_25 x_22_26 x_22_27 x_22_30 x_22_35 x_22_39
 x_22_40 x_22_41 x_22_42 x_22_43 x_22_44 x_22_49 x_23_25 x_23_27 x_23_28
 x_23_29 x_23_31 x_23_39 x_23_41 x_23_43 x_23_44 x_23_46 x_23_49 x_24_25
 x_24_29 x_24_31 x_24_33 x_24_35 x_24_37 x_24_39 x_24_42 x_24_43 x_24_45
 x_24_48 x_25_29 x_25_31 x_25_33 x_25_37 x_25_38 x_25_41 x_25_43 x_25_44
 x_25_45 x_26_27 x_26_37 x_26_38 x_26_45 x_26_49 x_27_37 x_27_41 x_27_46
 x_27_47 x_27_48 x_27_49 x_28_29 x_28_32 x_28_38 x_28_41 x_28_44 x_29_32
 x_29_33 x_29_34 x_29_36 x_29_40 x_29_44 x_29_45 x_29_47 x_29_48 x_30_34
 x_30_39 x_30_44 x_30_46 x_30_47 x_30_48 x_31_32 x_31_38 x_31_41 x_31_46
 x_31_48 x_32_33 x_32_36 x_32_38 x_32_39 x_33_37 x_34_37 x_34_47 x_35_36
 x_35_37 x_35_38 x_35_39 x_35_40 x_35_42 x_35_43 x_35_44 x_35_48 x_35_49
 x_36_43 x_36_44 x_36_45 x_36_47 x_37_38 x_37_39 x_37_40 x_37_43 x_37_45
 x_37_46 x_37_47 x_38_26 x_38_45 x_38_47 x_38_48 x_39_40 x_39_46 x_40_41
 x_40_42 x_41_43 x_41_46 x_41_47 x_41_48 x_42_43 x_42_46 x_43_46 x_44_46
 x_44_47 x_44_48 x_45_49
End
